W=6;
H=3;

MAX_TIME=11;
MAX_TRACKS=10;

TARGET=(1,6);

TRAINS=[(3,1,TOP)];
DECOYS=[];

INIT_POS=[
(1,4,ROCK),
(1,6,STRAIGHT_RL),
(2,2,ROCK),
(2,4,ROCK),
(2,6,ROCK),
(3,1,STRAIGHT_TD),
(3,2,ROCK),
(3,6,ROCK),
];
TUNNEL_PAIRS=[];

GATES=[];
ACTIVATIONS=[];

DSWITCHES=[];

STATIONS=[];

SEMAPHORE_SUPPLY=0;
